63 34 23 41 50 49 47 75 42 78 49 55 86 55 44 94 78 78 90 29 83 80 40 35 70 
22 23 39 33 42 73 94 53 16 38 86 90 94 13 56 17 10 86 49 56 83 50 22 23 89 
66 46 41 49 81 48 62 21 80 39 64 92 42 13 86 34 85 77 99 22 35 94 93 40 35 
25 50 85 24 10 74 50 24 34 88 95 63 68 40 14 17 54 87 64 29 66 63 91 48 73 
668.00
